63 63
9 19
57 21
52 5
30 22
20 26
36 10
59 13
2 18
18 30
14 12
44 6
45 4
19 9
32 29
26 13
12 5
49 3
5 28
53 21
16 3
31 29
37 31
51 25
46 17
13 24
10 20
23 27
55 24
54 8
8 16
6 7
48 14
41 1
40 31
39 27
56 11
47 17
50 23
34 4
43 20
25 15
24 23
21 2
29 22
28 19
17 2
35 1
11 28
4 11
33 15
22 18
62 7
27 6
42 8
58 26
38 25
7 14
60 32
63 16
1 30
15 10
61 9
3 12
